; benchmark generated from python API
(set-info :status unknown)
(declare-fun x_month () (_ BitVec 32))
(declare-fun x_year () (_ BitVec 32))
(declare-fun x_day () (_ BitVec 32))
(assert
 (let (($x731 (or (= (_ bv4 32) x_month) (= (_ bv6 32) x_month) (= (_ bv9 32) x_month) (= (_ bv11 32) x_month))))
 (let (($x4946 (and (= (_ bv0 32) (bvsmod x_year (_ bv4 32))) (and (distinct (_ bv0 32) (bvsmod x_year (_ bv100 32))) true))))
 (let (($x4158 (= (_ bv2 32) x_month)))
 (let ((?x6431 (ite $x4158 (ite (or $x4946 (= (_ bv0 32) (bvsmod x_year (_ bv400 32)))) (_ bv29 32) (_ bv28 32)) (ite $x731 (_ bv30 32) (_ bv31 32)))))
 (let (($x5800 (bvsle x_day ?x6431)))
 (let (($x6300 (bvsle (_ bv1 32) x_day)))
 (let (($x4510 (bvsle (_ bv1 32) x_month)))
 (let (($x3249 (bvsge (_ bv12 32) x_month)))
 (let (($x4208 (bvsle (_ bv1901 32) x_year)))
 (or (and (= (_ bv1900 32) x_year) (bvsle (_ bv3 32) x_month) $x3249 $x6300 $x5800) (and $x4208 (bvsge (_ bv2099 32) x_year) $x4510 $x3249 $x6300 $x5800) (and (= (_ bv2100 32) x_year) $x4510 (bvsge (_ bv2 32) x_month) $x6300 $x5800))))))))))))
(assert
 (let (($x2431 (or (bvslt (_ bv1 32) x_month) (and (= (_ bv1 32) x_month) (bvsle (_ bv1 32) x_day)))))
 (let (($x5071 (= (_ bv2020 32) x_year)))
 (or (bvslt (_ bv2020 32) x_year) (and $x5071 $x2431)))))
(assert
 (let (($x6044 (or (bvsgt (_ bv2 32) x_month) (and (= (_ bv2 32) x_month) (bvsge (_ bv28 32) x_day)))))
 (let (($x5071 (= (_ bv2020 32) x_year)))
 (or (bvsgt (_ bv2020 32) x_year) (and $x5071 $x6044)))))
(assert
 (let ((?x4212 (bvadd x_month (bvadd (bvmul (_ bv0 32) (_ bv12 32)) (_ bv0 32)))))
(let ((?x2070 (bvsub (ite (bvuge ?x4212 (_ bv2147483648 32)) (bvsub ?x4212 (_ bv0 32)) ?x4212) (_ bv1 32))))
(let ((?x4177 (bvsmod ?x2070 (_ bv12 32))))
(let ((?x3389 (bvadd ?x4177 (_ bv1 32))))
(let (($x4293 (= (_ bv11 32) ?x3389)))
(let (($x2947 (= (_ bv9 32) ?x3389)))
(let (($x4283 (= (_ bv6 32) ?x3389)))
(let (($x4464 (= (_ bv4 32) ?x3389)))
(let ((?x2147 (bvsdiv ?x2070 (_ bv12 32))))
(let ((?x2631 (ite (and (bvuge ?x2070 (_ bv2147483648 32)) (and (distinct (_ bv0 32) ?x4177) true)) (bvsub ?x2147 (_ bv1 32)) ?x2147)))
(let ((?x4236 (bvadd x_year ?x2631)))
(let (($x4551 (or (and (= (_ bv0 32) (bvsmod ?x4236 (_ bv4 32))) (and (distinct (_ bv0 32) (bvsmod ?x4236 (_ bv100 32))) true)) (= (_ bv0 32) (bvsmod ?x4236 (_ bv400 32))))))
(let (($x1853 (= (_ bv2 32) ?x3389)))
(let ((?x3728 (ite $x1853 (ite $x4551 (_ bv29 32) (_ bv28 32)) (ite (or $x4464 $x4283 $x2947 $x4293) (_ bv30 32) (_ bv31 32)))))
(let (($x6218 (bvsgt (_ bv1 32) x_day)))
(let ((?x1003 (ite $x6218 (_ bv1 32) (ite (bvsgt x_day ?x3728) ?x3728 x_day))))
(let ((?x2542 (ite (bvsgt (_ bv1 32) ?x1003) (_ bv1 32) (ite (bvsgt ?x1003 ?x3728) ?x3728 ?x1003))))
(let ((?x3307 (ite $x1853 (ite $x4551 (_ bv31 32) (_ bv31 32)) (ite (= (_ bv1 32) ?x3389) (ite $x4551 (_ bv0 32) (_ bv0 32)) (_ bv0 32)))))
(let ((?x4445 (ite $x4464 (ite $x4551 (_ bv91 32) (_ bv90 32)) (ite (= (_ bv3 32) ?x3389) (ite $x4551 (_ bv60 32) (_ bv59 32)) ?x3307))))
(let ((?x2067 (ite $x4283 (ite $x4551 (_ bv152 32) (_ bv151 32)) (ite (= (_ bv5 32) ?x3389) (ite $x4551 (_ bv121 32) (_ bv120 32)) ?x4445))))
(let ((?x2537 (ite (= (_ bv8 32) ?x3389) (ite $x4551 (_ bv213 32) (_ bv212 32)) (ite (= (_ bv7 32) ?x3389) (ite $x4551 (_ bv182 32) (_ bv181 32)) ?x2067))))
(let ((?x491 (ite (= (_ bv10 32) ?x3389) (ite $x4551 (_ bv274 32) (_ bv273 32)) (ite $x2947 (ite $x4551 (_ bv244 32) (_ bv243 32)) ?x2537))))
(let ((?x3024 (ite (= (_ bv12 32) ?x3389) (ite $x4551 (_ bv335 32) (_ bv334 32)) (ite $x4293 (ite $x4551 (_ bv305 32) (_ bv304 32)) ?x491))))
(let ((?x4533 (bvadd (bvmul (_ bv365 32) (bvsub ?x4236 (_ bv1 32))) (bvsdiv (bvsub ?x4236 (_ bv1 32)) (_ bv4 32)))))
(let ((?x4147 (bvadd (bvsub ?x4533 (bvsdiv (bvsub ?x4236 (_ bv1 32)) (_ bv100 32))) (bvsdiv (bvsub ?x4236 (_ bv1 32)) (_ bv400 32)))))
(let ((?x1247 (bvadd (bvadd (bvsub (bvadd (bvadd ?x4147 ?x3024) (bvsub ?x2542 (_ bv1 32))) (_ bv730179 32)) (_ bv365 32)) (_ bv730179 32))))
(let ((?x799 (bvsmod ?x1247 (_ bv146097 32))))
(let ((?x484 (bvsdiv ?x799 (_ bv36524 32))))
(let ((?x2518 (ite (bvsle (_ bv4 32) ?x484) (_ bv3 32) ?x484)))
(let ((?x3157 (bvsub ?x799 (bvmul ?x2518 (_ bv36524 32)))))
(let ((?x1905 (bvsmod ?x3157 (_ bv1461 32))))
(let ((?x3587 (bvsdiv ?x1905 (_ bv365 32))))
(let ((?x3783 (ite (bvsle (_ bv4 32) ?x3587) (_ bv3 32) ?x3587)))
(let ((?x1745 (bvadd (bvadd (bvmul (bvsdiv ?x1247 (_ bv146097 32)) (_ bv400 32)) (bvmul ?x2518 (_ bv100 32))) (bvmul (bvsdiv ?x3157 (_ bv1461 32)) (_ bv4 32)))))
(let ((?x5353 (bvadd (bvadd ?x1745 ?x3783) (_ bv1 32))))
(let (($x3045 (or (and (= (_ bv0 32) (bvsmod ?x5353 (_ bv4 32))) (and (distinct (_ bv0 32) (bvsmod ?x5353 (_ bv100 32))) true)) (= (_ bv0 32) (bvsmod ?x5353 (_ bv400 32))))))
(let ((?x2990 (bvsub ?x1905 (bvmul ?x3783 (_ bv365 32)))))
(let ((?x700 (ite $x3045 (_ bv31 32) (_ bv31 32))))
(let (($x4302 (bvsge ?x2990 ?x700)))
(let ((?x4215 (ite $x4302 (bvadd (bvsub ?x2990 ?x700) (_ bv1 32)) (bvadd (bvsub ?x2990 (ite $x3045 (_ bv0 32) (_ bv0 32))) (_ bv1 32)))))
(let ((?x1735 (ite $x3045 (_ bv60 32) (_ bv59 32))))
(let (($x1141 (bvsge ?x2990 ?x1735)))
(let ((?x4799 (ite $x3045 (_ bv91 32) (_ bv90 32))))
(let (($x3969 (bvsge ?x2990 ?x4799)))
(let ((?x1115 (ite $x3969 (bvadd (bvsub ?x2990 ?x4799) (_ bv1 32)) (ite $x1141 (bvadd (bvsub ?x2990 ?x1735) (_ bv1 32)) ?x4215))))
(let ((?x1429 (ite $x3045 (_ bv121 32) (_ bv120 32))))
(let (($x4110 (bvsge ?x2990 ?x1429)))
(let ((?x1343 (ite $x3045 (_ bv152 32) (_ bv151 32))))
(let (($x2080 (bvsge ?x2990 ?x1343)))
(let ((?x4741 (ite $x2080 (bvadd (bvsub ?x2990 ?x1343) (_ bv1 32)) (ite $x4110 (bvadd (bvsub ?x2990 ?x1429) (_ bv1 32)) ?x1115))))
(let ((?x2086 (ite $x3045 (_ bv182 32) (_ bv181 32))))
(let (($x4485 (bvsge ?x2990 ?x2086)))
(let ((?x4992 (ite $x3045 (_ bv213 32) (_ bv212 32))))
(let (($x3432 (bvsge ?x2990 ?x4992)))
(let ((?x3723 (ite $x3432 (bvadd (bvsub ?x2990 ?x4992) (_ bv1 32)) (ite $x4485 (bvadd (bvsub ?x2990 ?x2086) (_ bv1 32)) ?x4741))))
(let ((?x6884 (ite $x3045 (_ bv244 32) (_ bv243 32))))
(let (($x3189 (bvsge ?x2990 ?x6884)))
(let ((?x6011 (ite $x3045 (_ bv274 32) (_ bv273 32))))
(let (($x4379 (bvsge ?x2990 ?x6011)))
(let ((?x524 (ite $x4379 (bvadd (bvsub ?x2990 ?x6011) (_ bv1 32)) (ite $x3189 (bvadd (bvsub ?x2990 ?x6884) (_ bv1 32)) ?x3723))))
(let ((?x2799 (ite $x3045 (_ bv305 32) (_ bv304 32))))
(let (($x5739 (bvsge ?x2990 ?x2799)))
(let ((?x1644 (ite $x3045 (_ bv335 32) (_ bv334 32))))
(let (($x6442 (bvsge ?x2990 ?x1644)))
(let ((?x1820 (ite $x6442 (bvadd (bvsub ?x2990 ?x1644) (_ bv1 32)) (ite $x5739 (bvadd (bvsub ?x2990 ?x2799) (_ bv1 32)) ?x524))))
(let (($x3935 (= (_ bv0 32) (_ bv365 32))))
(let ((?x6717 (bvadd x_month (bvadd (bvmul (_ bv1 32) (_ bv12 32)) (_ bv0 32)))))
(let ((?x6850 (bvsub (ite (bvuge ?x6717 (_ bv2147483648 32)) (bvsub ?x6717 (_ bv0 32)) ?x6717) (_ bv1 32))))
(let ((?x6777 (bvsmod ?x6850 (_ bv12 32))))
(let ((?x5103 (bvadd ?x6777 (_ bv1 32))))
(let (($x3216 (= (_ bv11 32) ?x5103)))
(let (($x6596 (= (_ bv9 32) ?x5103)))
(let (($x5974 (= (_ bv6 32) ?x5103)))
(let (($x4206 (= (_ bv4 32) ?x5103)))
(let ((?x5340 (bvsdiv ?x6850 (_ bv12 32))))
(let ((?x6278 (ite (and (bvuge ?x6850 (_ bv2147483648 32)) (and (distinct (_ bv0 32) ?x6777) true)) (bvsub ?x5340 (_ bv1 32)) ?x5340)))
(let ((?x6879 (bvadd x_year ?x6278)))
(let (($x5012 (or (and (= (_ bv0 32) (bvsmod ?x6879 (_ bv4 32))) (and (distinct (_ bv0 32) (bvsmod ?x6879 (_ bv100 32))) true)) (= (_ bv0 32) (bvsmod ?x6879 (_ bv400 32))))))
(let (($x3365 (= (_ bv2 32) ?x5103)))
(let ((?x6597 (ite $x3365 (ite $x5012 (_ bv29 32) (_ bv28 32)) (ite (or $x4206 $x5974 $x6596 $x3216) (_ bv30 32) (_ bv31 32)))))
(let ((?x2861 (ite $x6218 (_ bv1 32) (ite (bvsgt x_day ?x6597) ?x6597 x_day))))
(let ((?x4035 (ite (bvsgt (_ bv1 32) ?x2861) (_ bv1 32) (ite (bvsgt ?x2861 ?x6597) ?x6597 ?x2861))))
(let ((?x930 (ite $x3365 (ite $x5012 (_ bv31 32) (_ bv31 32)) (ite (= (_ bv1 32) ?x5103) (ite $x5012 (_ bv0 32) (_ bv0 32)) (_ bv0 32)))))
(let ((?x1136 (ite $x4206 (ite $x5012 (_ bv91 32) (_ bv90 32)) (ite (= (_ bv3 32) ?x5103) (ite $x5012 (_ bv60 32) (_ bv59 32)) ?x930))))
(let ((?x922 (ite $x5974 (ite $x5012 (_ bv152 32) (_ bv151 32)) (ite (= (_ bv5 32) ?x5103) (ite $x5012 (_ bv121 32) (_ bv120 32)) ?x1136))))
(let ((?x755 (ite (= (_ bv8 32) ?x5103) (ite $x5012 (_ bv213 32) (_ bv212 32)) (ite (= (_ bv7 32) ?x5103) (ite $x5012 (_ bv182 32) (_ bv181 32)) ?x922))))
(let ((?x1126 (ite (= (_ bv10 32) ?x5103) (ite $x5012 (_ bv274 32) (_ bv273 32)) (ite $x6596 (ite $x5012 (_ bv244 32) (_ bv243 32)) ?x755))))
(let ((?x3159 (ite (= (_ bv12 32) ?x5103) (ite $x5012 (_ bv335 32) (_ bv334 32)) (ite $x3216 (ite $x5012 (_ bv305 32) (_ bv304 32)) ?x1126))))
(let ((?x4816 (bvadd (bvmul (_ bv365 32) (bvsub ?x6879 (_ bv1 32))) (bvsdiv (bvsub ?x6879 (_ bv1 32)) (_ bv4 32)))))
(let ((?x433 (bvadd (bvsub ?x4816 (bvsdiv (bvsub ?x6879 (_ bv1 32)) (_ bv100 32))) (bvsdiv (bvsub ?x6879 (_ bv1 32)) (_ bv400 32)))))
(let ((?x736 (bvadd (bvadd (bvsub (bvadd (bvadd ?x433 ?x3159) (bvsub ?x4035 (_ bv1 32))) (_ bv730179 32)) (_ bv0 32)) (_ bv730179 32))))
(let ((?x713 (bvsmod ?x736 (_ bv146097 32))))
(let ((?x884 (bvsdiv ?x713 (_ bv36524 32))))
(let ((?x1001 (ite (bvsle (_ bv4 32) ?x884) (_ bv3 32) ?x884)))
(let ((?x1119 (bvsub ?x713 (bvmul ?x1001 (_ bv36524 32)))))
(let ((?x3030 (bvsmod ?x1119 (_ bv1461 32))))
(let ((?x511 (bvsdiv ?x3030 (_ bv365 32))))
(let ((?x1132 (ite (bvsle (_ bv4 32) ?x511) (_ bv3 32) ?x511)))
(let ((?x3567 (bvadd (bvadd (bvmul (bvsdiv ?x736 (_ bv146097 32)) (_ bv400 32)) (bvmul ?x1001 (_ bv100 32))) (bvmul (bvsdiv ?x1119 (_ bv1461 32)) (_ bv4 32)))))
(let ((?x3058 (bvadd (bvadd ?x3567 ?x1132) (_ bv1 32))))
(let (($x4165 (or (and (= (_ bv0 32) (bvsmod ?x3058 (_ bv4 32))) (and (distinct (_ bv0 32) (bvsmod ?x3058 (_ bv100 32))) true)) (= (_ bv0 32) (bvsmod ?x3058 (_ bv400 32))))))
(let ((?x4580 (bvsub ?x3030 (bvmul ?x1132 (_ bv365 32)))))
(let ((?x4614 (ite $x4165 (_ bv31 32) (_ bv31 32))))
(let (($x2232 (bvsge ?x4580 ?x4614)))
(let ((?x4289 (ite $x2232 (bvadd (bvsub ?x4580 ?x4614) (_ bv1 32)) (bvadd (bvsub ?x4580 (ite $x4165 (_ bv0 32) (_ bv0 32))) (_ bv1 32)))))
(let ((?x4016 (ite $x4165 (_ bv60 32) (_ bv59 32))))
(let (($x1552 (bvsge ?x4580 ?x4016)))
(let ((?x2878 (ite $x4165 (_ bv91 32) (_ bv90 32))))
(let (($x2016 (bvsge ?x4580 ?x2878)))
(let ((?x2912 (ite $x2016 (bvadd (bvsub ?x4580 ?x2878) (_ bv1 32)) (ite $x1552 (bvadd (bvsub ?x4580 ?x4016) (_ bv1 32)) ?x4289))))
(let ((?x4502 (ite $x4165 (_ bv121 32) (_ bv120 32))))
(let (($x3722 (bvsge ?x4580 ?x4502)))
(let ((?x3906 (ite $x4165 (_ bv152 32) (_ bv151 32))))
(let (($x1172 (bvsge ?x4580 ?x3906)))
(let ((?x2920 (ite $x1172 (bvadd (bvsub ?x4580 ?x3906) (_ bv1 32)) (ite $x3722 (bvadd (bvsub ?x4580 ?x4502) (_ bv1 32)) ?x2912))))
(let ((?x4499 (ite $x4165 (_ bv182 32) (_ bv181 32))))
(let (($x3265 (bvsge ?x4580 ?x4499)))
(let ((?x2363 (ite $x4165 (_ bv213 32) (_ bv212 32))))
(let (($x1986 (bvsge ?x4580 ?x2363)))
(let ((?x911 (ite $x1986 (bvadd (bvsub ?x4580 ?x2363) (_ bv1 32)) (ite $x3265 (bvadd (bvsub ?x4580 ?x4499) (_ bv1 32)) ?x2920))))
(let ((?x2466 (ite $x4165 (_ bv244 32) (_ bv243 32))))
(let (($x3638 (bvsge ?x4580 ?x2466)))
(let ((?x3187 (ite $x4165 (_ bv274 32) (_ bv273 32))))
(let (($x4349 (bvsge ?x4580 ?x3187)))
(let ((?x3252 (ite $x4349 (bvadd (bvsub ?x4580 ?x3187) (_ bv1 32)) (ite $x3638 (bvadd (bvsub ?x4580 ?x2466) (_ bv1 32)) ?x911))))
(let ((?x4166 (ite $x4165 (_ bv305 32) (_ bv304 32))))
(let (($x2561 (bvsge ?x4580 ?x4166)))
(let ((?x1525 (ite $x4165 (_ bv335 32) (_ bv334 32))))
(let (($x687 (bvsge ?x4580 ?x1525)))
(let ((?x957 (ite $x687 (bvadd (bvsub ?x4580 ?x1525) (_ bv1 32)) (ite $x2561 (bvadd (bvsub ?x4580 ?x4166) (_ bv1 32)) ?x3252))))
(let (($x1155 (= (_ bv0 32) (_ bv0 32))))
(let ((?x11121 (ite $x2080 (_ bv6 32) (ite $x4110 (_ bv5 32) (ite $x3969 (_ bv4 32) (ite $x1141 (_ bv3 32) (ite $x4302 (_ bv2 32) (_ bv1 32))))))))
(let ((?x3949 (ite $x5739 (_ bv11 32) (ite $x4379 (_ bv10 32) (ite $x3189 (_ bv9 32) (ite $x3432 (_ bv8 32) (ite $x4485 (_ bv7 32) ?x11121)))))))
(let ((?x1893 (ite $x6442 (_ bv12 32) ?x3949)))
(let ((?x2930 (ite $x1172 (_ bv6 32) (ite $x3722 (_ bv5 32) (ite $x2016 (_ bv4 32) (ite $x1552 (_ bv3 32) (ite $x2232 (_ bv2 32) (_ bv1 32))))))))
(let ((?x3163 (ite $x2561 (_ bv11 32) (ite $x4349 (_ bv10 32) (ite $x3638 (_ bv9 32) (ite $x1986 (_ bv8 32) (ite $x3265 (_ bv7 32) ?x2930)))))))
(let (($x812 (and (= (ite $x1155 ?x6879 ?x3058) (ite $x3935 ?x4236 ?x5353)) (= (ite $x1155 ?x5103 (ite $x687 (_ bv12 32) ?x3163)) (ite $x3935 ?x3389 ?x1893)) (= (ite $x1155 ?x4035 ?x957) (ite $x3935 ?x2542 ?x1820)))))
(not $x812)))))))))))))))))))))))))))))))))))))))))))))))))))))))))))))))))))))))))))))))))))))))))))))))))))))))))))))))))))))))))))))))))))))))))))
(check-sat)
